; SWAP3 SWAP4 SWAP2 SWAP3 SWAP1 SWAP2 => SWAP1 SWAP2 SWAP3 SWAP4
(set-option :produce-proofs true)
; 
(set-info :status unknown)
(declare-fun storage_t ((_ BitVec 256) (_ BitVec 256) (_ BitVec 256) (_ BitVec 256) (_ BitVec 256) Int (_ BitVec 256)) (_ BitVec 256))
(declare-fun storage_s ((_ BitVec 256) (_ BitVec 256) (_ BitVec 256) (_ BitVec 256) (_ BitVec 256) Int (_ BitVec 256)) (_ BitVec 256))
(declare-fun exc_halt_t (Int) Bool)
(declare-fun exc_halt_s (Int) Bool)
(declare-fun sc_t (Int) (_ BitVec 6))
(declare-fun stack_t ((_ BitVec 256) (_ BitVec 256) (_ BitVec 256) (_ BitVec 256) (_ BitVec 256) Int (_ BitVec 6)) (_ BitVec 256))
(declare-fun stack_s ((_ BitVec 256) (_ BitVec 256) (_ BitVec 256) (_ BitVec 256) (_ BitVec 256) Int (_ BitVec 6)) (_ BitVec 256))
(declare-fun sc_s (Int) (_ BitVec 6))
(declare-fun used_gas_t ((_ BitVec 256) (_ BitVec 256) (_ BitVec 256) (_ BitVec 256) (_ BitVec 256) Int) Int)
(declare-fun used_gas_s ((_ BitVec 256) (_ BitVec 256) (_ BitVec 256) (_ BitVec 256) (_ BitVec 256) Int) Int)
(assert
 (exists ((x_0 (_ BitVec 256)) (x_1 (_ BitVec 256)) (x_2 (_ BitVec 256)) (x_3 (_ BitVec 256)) (x_4 (_ BitVec 256)) )(let (($x11303 (forall ((w (_ BitVec 256)) )(let ((?x11028 (storage_t x_0 x_1 x_2 x_3 x_4 4 w)))
 (let ((?x1302 (storage_s x_0 x_1 x_2 x_3 x_4 6 w)))
 (= ?x1302 ?x11028))))
 ))
 (let (($x7854 (exc_halt_t 4)))
 (let (($x772 (exc_halt_s 6)))
 (let (($x4404 (= $x772 $x7854)))
 (let (($x4338 (forall ((n (_ BitVec 6)) )(let ((?x4818 (sc_t 4)))
 (let (($x6423 (bvsle ?x4818 n)))
 (let ((?x5141 (stack_t x_0 x_1 x_2 x_3 x_4 4 n)))
 (let ((?x6297 (stack_s x_0 x_1 x_2 x_3 x_4 6 n)))
 (let (($x4748 (= ?x6297 ?x5141)))
 (or $x4748 $x6423)))))))
 ))
 (let ((?x4818 (sc_t 4)))
 (let ((?x926 (sc_s 6)))
 (let (($x7899 (= ?x926 ?x4818)))
 (let ((?x2667 (used_gas_t x_0 x_1 x_2 x_3 x_4 0)))
 (let ((?x3410 (used_gas_s x_0 x_1 x_2 x_3 x_4 0)))
 (let (($x1917 (= ?x3410 ?x2667)))
 (let (($x9663 (forall ((w (_ BitVec 256)) )(let ((?x11010 (storage_t x_0 x_1 x_2 x_3 x_4 0 w)))
 (let ((?x3618 (storage_s x_0 x_1 x_2 x_3 x_4 0 w)))
 (= ?x3618 ?x11010))))
 ))
 (let (($x56 (exc_halt_t 0)))
 (let (($x57 (exc_halt_s 0)))
 (let (($x58 (= $x57 $x56)))
 (let (($x3256 (forall ((n (_ BitVec 6)) )(let ((?x63 (sc_t 0)))
 (let (($x4230 (bvsle ?x63 n)))
 (let ((?x2450 (stack_t x_0 x_1 x_2 x_3 x_4 0 n)))
 (let ((?x3925 (stack_s x_0 x_1 x_2 x_3 x_4 0 n)))
 (let (($x1653 (= ?x3925 ?x2450)))
 (or $x1653 $x4230)))))))
 ))
 (let ((?x63 (sc_t 0)))
 (let ((?x72 (sc_s 0)))
 (let (($x73 (= ?x72 ?x63)))
 (let (($x3709 (= $x7854 (or (exc_halt_t 3) (not (bvsle (_ bv0 6) (bvadd (_ bv59 6) (sc_t 3))))))))
 (let (($x10669 (forall ((w (_ BitVec 256)) )(let ((?x4018 (storage_t x_0 x_1 x_2 x_3 x_4 3 w)))
 (let ((?x11028 (storage_t x_0 x_1 x_2 x_3 x_4 4 w)))
 (= ?x11028 ?x4018))))
 ))
 (let (($x7806 (forall ((n (_ BitVec 6)) )(let ((?x2122 (stack_t x_0 x_1 x_2 x_3 x_4 3 n)))
 (let ((?x5141 (stack_t x_0 x_1 x_2 x_3 x_4 4 n)))
 (or (bvsle (bvadd (_ bv59 6) (sc_t 3)) n) (= ?x5141 ?x2122)))))
 ))
 (let ((?x10926 (sc_t 3)))
 (let (($x487 (= ?x4818 ?x10926)))
 (let (($x10611 (= (used_gas_t x_0 x_1 x_2 x_3 x_4 4) (+ 3 (used_gas_t x_0 x_1 x_2 x_3 x_4 3)))))
 (let ((?x9407 (bvadd (_ bv62 6) ?x10926)))
 (let ((?x11245 (stack_t x_0 x_1 x_2 x_3 x_4 3 ?x9407)))
 (let ((?x3613 (bvadd (_ bv61 6) ?x10926)))
 (let ((?x6229 (stack_t x_0 x_1 x_2 x_3 x_4 3 ?x3613)))
 (let ((?x8528 (bvadd (_ bv60 6) ?x10926)))
 (let ((?x3380 (stack_t x_0 x_1 x_2 x_3 x_4 3 ?x8528)))
 (let ((?x5892 (bvadd (_ bv63 6) ?x10926)))
 (let ((?x5286 (stack_t x_0 x_1 x_2 x_3 x_4 3 ?x5892)))
 (let (($x11372 (= (stack_t x_0 x_1 x_2 x_3 x_4 4 (bvadd (_ bv63 6) ?x4818)) (stack_t x_0 x_1 x_2 x_3 x_4 3 (bvadd (_ bv59 6) ?x10926)))))
 (let (($x2670 (exc_halt_t 3)))
 (let (($x9384 (= $x2670 (or (exc_halt_t 2) (not (bvsle (_ bv0 6) (bvadd (_ bv60 6) (sc_t 2))))))))
 (let (($x4952 (forall ((w (_ BitVec 256)) )(let ((?x11434 (storage_t x_0 x_1 x_2 x_3 x_4 2 w)))
 (let ((?x4018 (storage_t x_0 x_1 x_2 x_3 x_4 3 w)))
 (= ?x4018 ?x11434))))
 ))
 (let (($x10068 (forall ((n (_ BitVec 6)) )(let ((?x6186 (stack_t x_0 x_1 x_2 x_3 x_4 2 n)))
 (let ((?x2122 (stack_t x_0 x_1 x_2 x_3 x_4 3 n)))
 (let ((?x2714 (sc_t 2)))
 (let ((?x1060 (bvadd (_ bv60 6) ?x2714)))
 (let (($x3774 (bvsle ?x1060 n)))
 (or $x3774 (= ?x2122 ?x6186))))))))
 ))
 (let ((?x2714 (sc_t 2)))
 (let (($x6910 (= ?x10926 ?x2714)))
 (let ((?x6638 (used_gas_t x_0 x_1 x_2 x_3 x_4 3)))
 (let (($x2163 (exc_halt_t 2)))
 (let (($x8581 (= $x2163 (or (exc_halt_t 1) (not (bvsle (_ bv0 6) (bvadd (_ bv61 6) (sc_t 1))))))))
 (let (($x3128 (forall ((w (_ BitVec 256)) )(let ((?x10716 (storage_t x_0 x_1 x_2 x_3 x_4 1 w)))
 (let ((?x11434 (storage_t x_0 x_1 x_2 x_3 x_4 2 w)))
 (= ?x11434 ?x10716))))
 ))
 (let (($x2413 (forall ((n (_ BitVec 6)) )(let ((?x7104 (stack_t x_0 x_1 x_2 x_3 x_4 1 n)))
 (let ((?x6186 (stack_t x_0 x_1 x_2 x_3 x_4 2 n)))
 (let ((?x7154 (sc_t 1)))
 (let ((?x5931 (bvadd (_ bv61 6) ?x7154)))
 (let (($x7161 (bvsle ?x5931 n)))
 (or $x7161 (= ?x6186 ?x7104))))))))
 ))
 (let ((?x7154 (sc_t 1)))
 (let (($x3683 (= ?x2714 ?x7154)))
 (let ((?x10078 (used_gas_t x_0 x_1 x_2 x_3 x_4 2)))
 (let ((?x11182 (bvadd (_ bv62 6) ?x7154)))
 (let ((?x9888 (stack_t x_0 x_1 x_2 x_3 x_4 1 ?x11182)))
 (let ((?x3211 (bvadd (_ bv62 6) ?x2714)))
 (let ((?x1799 (stack_t x_0 x_1 x_2 x_3 x_4 2 ?x3211)))
 (let ((?x10834 (bvadd (_ bv63 6) ?x7154)))
 (let ((?x371 (stack_t x_0 x_1 x_2 x_3 x_4 1 ?x10834)))
 (let ((?x715 (bvadd (_ bv61 6) ?x2714)))
 (let ((?x6692 (stack_t x_0 x_1 x_2 x_3 x_4 2 ?x715)))
 (let ((?x4376 (bvadd (_ bv63 6) ?x2714)))
 (let ((?x6299 (stack_t x_0 x_1 x_2 x_3 x_4 2 ?x4376)))
 (let (($x8377 (exc_halt_t 1)))
 (let (($x136 (= $x8377 (or $x56 (not (bvsle (_ bv0 6) (bvadd (_ bv62 6) ?x63)))))))
 (let (($x7209 (forall ((w (_ BitVec 256)) )(let ((?x11010 (storage_t x_0 x_1 x_2 x_3 x_4 0 w)))
 (let ((?x10716 (storage_t x_0 x_1 x_2 x_3 x_4 1 w)))
 (= ?x10716 ?x11010))))
 ))
 (let (($x11805 (forall ((n (_ BitVec 6)) )(let ((?x63 (sc_t 0)))
 (let ((?x10467 (bvadd (_ bv62 6) ?x63)))
 (let (($x4206 (bvsle ?x10467 n)))
 (let ((?x2450 (stack_t x_0 x_1 x_2 x_3 x_4 0 n)))
 (let ((?x7104 (stack_t x_0 x_1 x_2 x_3 x_4 1 n)))
 (or (= ?x7104 ?x2450) $x4206)))))))
 ))
 (let (($x2545 (= ?x7154 ?x63)))
 (let (($x2912 (= $x772 (or (exc_halt_s 5) (not (bvsle (_ bv0 6) (bvadd (_ bv61 6) (sc_s 5))))))))
 (let (($x5512 (forall ((w (_ BitVec 256)) )(let ((?x936 (storage_s x_0 x_1 x_2 x_3 x_4 5 w)))
 (let ((?x1302 (storage_s x_0 x_1 x_2 x_3 x_4 6 w)))
 (= ?x1302 ?x936))))
 ))
 (let (($x7731 (forall ((n (_ BitVec 6)) )(let ((?x1896 (stack_s x_0 x_1 x_2 x_3 x_4 5 n)))
 (let ((?x6297 (stack_s x_0 x_1 x_2 x_3 x_4 6 n)))
 (let ((?x4319 (sc_s 5)))
 (let ((?x5269 (bvadd (_ bv61 6) ?x4319)))
 (let (($x6525 (bvsle ?x5269 n)))
 (or $x6525 (= ?x6297 ?x1896))))))))
 ))
 (let ((?x4319 (sc_s 5)))
 (let (($x4573 (= ?x926 ?x4319)))
 (let (($x9675 (= (used_gas_s x_0 x_1 x_2 x_3 x_4 6) (+ 3 (used_gas_s x_0 x_1 x_2 x_3 x_4 5)))))
 (let ((?x2125 (bvadd (_ bv62 6) ?x4319)))
 (let ((?x3347 (stack_s x_0 x_1 x_2 x_3 x_4 5 ?x2125)))
 (let ((?x5971 (bvadd (_ bv63 6) ?x4319)))
 (let ((?x1512 (stack_s x_0 x_1 x_2 x_3 x_4 5 ?x5971)))
 (let (($x8992 (= (stack_s x_0 x_1 x_2 x_3 x_4 6 (bvadd (_ bv63 6) ?x926)) (stack_s x_0 x_1 x_2 x_3 x_4 5 (bvadd (_ bv61 6) ?x4319)))))
 (let (($x11317 (exc_halt_s 5)))
 (let (($x9072 (= $x11317 (or (exc_halt_s 4) (not (bvsle (_ bv0 6) (bvadd (_ bv62 6) (sc_s 4))))))))
 (let (($x608 (forall ((w (_ BitVec 256)) )(let ((?x9540 (storage_s x_0 x_1 x_2 x_3 x_4 4 w)))
 (let ((?x936 (storage_s x_0 x_1 x_2 x_3 x_4 5 w)))
 (= ?x936 ?x9540))))
 ))
 (let (($x943 (forall ((n (_ BitVec 6)) )(let ((?x6670 (stack_s x_0 x_1 x_2 x_3 x_4 4 n)))
 (let ((?x1896 (stack_s x_0 x_1 x_2 x_3 x_4 5 n)))
 (let ((?x4305 (sc_s 4)))
 (let ((?x8930 (bvadd (_ bv62 6) ?x4305)))
 (let (($x3896 (bvsle ?x8930 n)))
 (or $x3896 (= ?x1896 ?x6670))))))))
 ))
 (let ((?x4305 (sc_s 4)))
 (let (($x780 (= ?x4319 ?x4305)))
 (let ((?x8534 (used_gas_s x_0 x_1 x_2 x_3 x_4 5)))
 (let (($x7172 (exc_halt_s 4)))
 (let (($x2858 (= $x7172 (or (exc_halt_s 3) (not (bvsle (_ bv0 6) (bvadd (_ bv60 6) (sc_s 3))))))))
 (let (($x713 (forall ((w (_ BitVec 256)) )(let ((?x8192 (storage_s x_0 x_1 x_2 x_3 x_4 3 w)))
 (let ((?x9540 (storage_s x_0 x_1 x_2 x_3 x_4 4 w)))
 (= ?x9540 ?x8192))))
 ))
 (let (($x2247 (forall ((n (_ BitVec 6)) )(let ((?x7963 (stack_s x_0 x_1 x_2 x_3 x_4 3 n)))
 (let ((?x6670 (stack_s x_0 x_1 x_2 x_3 x_4 4 n)))
 (or (bvsle (bvadd (_ bv60 6) (sc_s 3)) n) (= ?x6670 ?x7963)))))
 ))
 (let ((?x275 (sc_s 3)))
 (let (($x10065 (= ?x4305 ?x275)))
 (let ((?x1139 (used_gas_s x_0 x_1 x_2 x_3 x_4 4)))
 (let ((?x10705 (bvadd (_ bv62 6) ?x275)))
 (let ((?x844 (stack_s x_0 x_1 x_2 x_3 x_4 3 ?x10705)))
 (let ((?x8930 (bvadd (_ bv62 6) ?x4305)))
 (let ((?x2903 (stack_s x_0 x_1 x_2 x_3 x_4 4 ?x8930)))
 (let ((?x11808 (bvadd (_ bv61 6) ?x275)))
 (let ((?x9634 (stack_s x_0 x_1 x_2 x_3 x_4 3 ?x11808)))
 (let ((?x10876 (bvadd (_ bv63 6) ?x275)))
 (let ((?x2728 (stack_s x_0 x_1 x_2 x_3 x_4 3 ?x10876)))
 (let ((?x4739 (bvadd (_ bv63 6) ?x4305)))
 (let ((?x324 (stack_s x_0 x_1 x_2 x_3 x_4 4 ?x4739)))
 (let (($x292 (exc_halt_s 3)))
 (let (($x1802 (= $x292 (or (exc_halt_s 2) (not (bvsle (_ bv0 6) (bvadd (_ bv61 6) (sc_s 2))))))))
 (let (($x10363 (forall ((w (_ BitVec 256)) )(let ((?x4213 (storage_s x_0 x_1 x_2 x_3 x_4 2 w)))
 (let ((?x8192 (storage_s x_0 x_1 x_2 x_3 x_4 3 w)))
 (= ?x8192 ?x4213))))
 ))
 (let (($x8757 (forall ((n (_ BitVec 6)) )(let ((?x2898 (stack_s x_0 x_1 x_2 x_3 x_4 2 n)))
 (let ((?x7963 (stack_s x_0 x_1 x_2 x_3 x_4 3 n)))
 (or (= ?x7963 ?x2898) (bvsle (bvadd (_ bv61 6) (sc_s 2)) n)))))
 ))
 (let ((?x218 (sc_s 2)))
 (let (($x7483 (= ?x275 ?x218)))
 (let ((?x1710 (used_gas_s x_0 x_1 x_2 x_3 x_4 3)))
 (let (($x247 (exc_halt_s 2)))
 (let (($x11697 (= $x247 (or (exc_halt_s 1) (not (bvsle (_ bv0 6) (bvadd (_ bv59 6) (sc_s 1))))))))
 (let (($x11779 (forall ((w (_ BitVec 256)) )(let ((?x345 (storage_s x_0 x_1 x_2 x_3 x_4 1 w)))
 (let ((?x4213 (storage_s x_0 x_1 x_2 x_3 x_4 2 w)))
 (= ?x4213 ?x345))))
 ))
 (let (($x5904 (forall ((n (_ BitVec 6)) )(let ((?x10584 (stack_s x_0 x_1 x_2 x_3 x_4 1 n)))
 (let ((?x2898 (stack_s x_0 x_1 x_2 x_3 x_4 2 n)))
 (or (= ?x2898 ?x10584) (bvsle (bvadd (_ bv59 6) (sc_s 1)) n)))))
 ))
 (let ((?x154 (sc_s 1)))
 (let (($x8545 (= ?x218 ?x154)))
 (let ((?x4112 (used_gas_s x_0 x_1 x_2 x_3 x_4 2)))
 (let ((?x9486 (bvadd (_ bv62 6) ?x154)))
 (let ((?x8126 (stack_s x_0 x_1 x_2 x_3 x_4 1 ?x9486)))
 (let ((?x11299 (bvadd (_ bv62 6) ?x218)))
 (let ((?x2883 (stack_s x_0 x_1 x_2 x_3 x_4 2 ?x11299)))
 (let ((?x2426 (bvadd (_ bv61 6) ?x154)))
 (let ((?x1356 (stack_s x_0 x_1 x_2 x_3 x_4 1 ?x2426)))
 (let ((?x7954 (bvadd (_ bv61 6) ?x218)))
 (let ((?x4262 (stack_s x_0 x_1 x_2 x_3 x_4 2 ?x7954)))
 (let ((?x9027 (bvadd (_ bv60 6) ?x154)))
 (let ((?x8332 (stack_s x_0 x_1 x_2 x_3 x_4 1 ?x9027)))
 (let ((?x4263 (bvadd (_ bv63 6) ?x154)))
 (let ((?x9412 (stack_s x_0 x_1 x_2 x_3 x_4 1 ?x4263)))
 (let ((?x4853 (bvadd (_ bv63 6) ?x218)))
 (let ((?x9104 (stack_s x_0 x_1 x_2 x_3 x_4 2 ?x4853)))
 (let (($x189 (exc_halt_s 1)))
 (let (($x141 (= $x189 (or $x57 (not (bvsle (_ bv0 6) (bvadd (_ bv60 6) ?x72)))))))
 (let (($x4020 (forall ((w (_ BitVec 256)) )(let ((?x3618 (storage_s x_0 x_1 x_2 x_3 x_4 0 w)))
 (let ((?x345 (storage_s x_0 x_1 x_2 x_3 x_4 1 w)))
 (= ?x345 ?x3618))))
 ))
 (let (($x4893 (forall ((n (_ BitVec 6)) )(let ((?x72 (sc_s 0)))
 (let ((?x3616 (bvadd (_ bv60 6) ?x72)))
 (let (($x7607 (bvsle ?x3616 n)))
 (let ((?x3925 (stack_s x_0 x_1 x_2 x_3 x_4 0 n)))
 (let ((?x10584 (stack_s x_0 x_1 x_2 x_3 x_4 1 n)))
 (or (= ?x10584 ?x3925) $x7607)))))))
 ))
 (let (($x9070 (= ?x154 ?x72)))
 (let (($x6636 (forall ((w (_ BitVec 256)) )(let ((?x3618 (storage_s x_0 x_1 x_2 x_3 x_4 0 w)))
 (= ?x3618 (_ bv0 256))))
 ))
 (let (($x7345 (= ?x3410 0)))
 (let (($x5536 (not $x57)))
 (let (($x3841 (= (stack_s x_0 x_1 x_2 x_3 x_4 0 (_ bv4 6)) x_4)))
 (let (($x9191 (= (stack_s x_0 x_1 x_2 x_3 x_4 0 (_ bv3 6)) x_3)))
 (let (($x6513 (= (stack_s x_0 x_1 x_2 x_3 x_4 0 (_ bv2 6)) x_2)))
 (let (($x4232 (= (stack_s x_0 x_1 x_2 x_3 x_4 0 (_ bv1 6)) x_1)))
 (let (($x11409 (= (stack_s x_0 x_1 x_2 x_3 x_4 0 (_ bv0 6)) x_0)))
 (let (($x5855 (= ?x72 (_ bv5 6))))
 (and $x5855 $x11409 $x4232 $x6513 $x9191 $x3841 $x5536 $x7345 $x6636 (= ?x9412 (stack_s x_0 x_1 x_2 x_3 x_4 0 (bvadd (_ bv60 6) ?x72))) (= ?x8332 (stack_s x_0 x_1 x_2 x_3 x_4 0 (bvadd (_ bv63 6) ?x72))) (= ?x1356 (stack_s x_0 x_1 x_2 x_3 x_4 0 (bvadd (_ bv61 6) ?x72))) (= ?x8126 (stack_s x_0 x_1 x_2 x_3 x_4 0 (bvadd (_ bv62 6) ?x72))) (= (used_gas_s x_0 x_1 x_2 x_3 x_4 1) (+ 3 ?x3410)) $x9070 $x4893 $x4020 $x141 (= ?x9104 (stack_s x_0 x_1 x_2 x_3 x_4 1 (bvadd (_ bv59 6) ?x154))) (= (stack_s x_0 x_1 x_2 x_3 x_4 2 (bvadd (_ bv59 6) ?x218)) ?x9412) (= (stack_s x_0 x_1 x_2 x_3 x_4 2 (bvadd (_ bv60 6) ?x218)) ?x8332) (= ?x4262 ?x1356) (= ?x2883 ?x8126) (= ?x4112 (+ 3 (used_gas_s x_0 x_1 x_2 x_3 x_4 1))) $x8545 $x5904 $x11779 $x11697 (= ?x2728 ?x4262) (= ?x9634 ?x9104) (= ?x844 ?x2883) (= ?x1710 (+ 3 ?x4112)) $x7483 $x8757 $x10363 $x1802 (= ?x324 (stack_s x_0 x_1 x_2 x_3 x_4 3 (bvadd (_ bv60 6) ?x275))) (= (stack_s x_0 x_1 x_2 x_3 x_4 4 (bvadd (_ bv60 6) ?x4305)) ?x2728) (= (stack_s x_0 x_1 x_2 x_3 x_4 4 (bvadd (_ bv61 6) ?x4305)) ?x9634) (= ?x2903 ?x844) (= ?x1139 (+ 3 ?x1710)) $x10065 $x2247 $x713 $x2858 (= ?x1512 ?x2903) (= ?x3347 ?x324) (= ?x8534 (+ 3 ?x1139)) $x780 $x943 $x608 $x9072 $x8992 (= (stack_s x_0 x_1 x_2 x_3 x_4 6 (bvadd (_ bv61 6) ?x926)) ?x1512) (= (stack_s x_0 x_1 x_2 x_3 x_4 6 (bvadd (_ bv62 6) ?x926)) ?x3347) $x9675 $x4573 $x7731 $x5512 $x2912 (= ?x371 (stack_t x_0 x_1 x_2 x_3 x_4 0 (bvadd (_ bv62 6) ?x63))) (= ?x9888 (stack_t x_0 x_1 x_2 x_3 x_4 0 (bvadd (_ bv63 6) ?x63))) (= (used_gas_t x_0 x_1 x_2 x_3 x_4 1) (+ 3 ?x2667)) $x2545 $x11805 $x7209 $x136 (= ?x6299 (stack_t x_0 x_1 x_2 x_3 x_4 1 (bvadd (_ bv61 6) ?x7154))) (= ?x6692 ?x371) (= ?x1799 ?x9888) (= ?x10078 (+ 3 (used_gas_t x_0 x_1 x_2 x_3 x_4 1))) $x3683 $x2413 $x3128 $x8581 (= ?x5286 (stack_t x_0 x_1 x_2 x_3 x_4 2 (bvadd (_ bv60 6) ?x2714))) (= ?x3380 ?x6299) (= ?x6229 ?x6692) (= ?x11245 ?x1799) (= ?x6638 (+ 3 ?x10078)) $x6910 $x10068 $x4952 $x9384 $x11372 (= (stack_t x_0 x_1 x_2 x_3 x_4 4 (bvadd (_ bv59 6) ?x4818)) ?x5286) (= (stack_t x_0 x_1 x_2 x_3 x_4 4 (bvadd (_ bv60 6) ?x4818)) ?x3380) (= (stack_t x_0 x_1 x_2 x_3 x_4 4 (bvadd (_ bv61 6) ?x4818)) ?x6229) (= (stack_t x_0 x_1 x_2 x_3 x_4 4 (bvadd (_ bv62 6) ?x4818)) ?x11245) $x10611 $x487 $x7806 $x10669 $x3709 $x73 $x3256 $x58 $x9663 $x1917 (not (and $x7899 $x4338 $x4404 $x11303))))))))))))))))))))))))))))))))))))))))))))))))))))))))))))))))))))))))))))))))))))))))))))))))))))))))))))))))))))))))))))))))))))))))))))))))
 )
(check-sat)
(get-proof)
